Mini - Project/blending_odd.dat
# dat file

set J:= 1 2;
set I:= 1 2 3;

param cost:=
1 20
2 25;

param ip: 1 2:=
1 1 1
2 1 1
3 1 1;

param a:=
1 0.2
2 -0.8
3 0.2;

param b:=
1 0.1
2 -0.9
3 0.1;

param c:=
1 0.1
2 0.1
3 -0.9;

param limSugar:= 100;
param limNut:= 20;
param limChocolate:= 30;